c User generated cnf file
p cnf 12 39
-9 6 8 0 
-11 5 12 0 
2 -2 4 0 
12 10 -4 0 
10 4 -8 0 
-11 2 8 0 
-10 8 5 0 
7 10 -9 0 
-7 11 10 0 
-1 5 10 0 
-5 2 4 0 
4 9 -12 0 
11 3 -10 0 
11 -3 1 0 
12 8 -9 0 
2 -10 2 0 
10 12 -8 0 
-3 8 4 0 
1 -2 5 0 
10 -8 9 0 
5 5 -9 0 
-12 5 8 0 
4 12 -1 0 
7 1 -10 0 
-12 8 2 0 
5 -11 5 0 
1 -12 4 0 
-6 9 8 0 
-11 10 11 0 
-1 6 1 0 
4 10 -8 0 
-7 10 7 0 
-1 3 12 0 
11 10 -1 0 
4 3 -9 0 
11 12 -8 0 
4 -6 11 0 
2 12 -2 0 
-7 8 11 0 
